5250
500000
332713
332713
332713
332713
332713
332713
332573
332573
332573
332573
332573
332573
332573
332374
332374
332374
331929
331929
331929
331929
331929
331929
331929
331929
331929
331929
331929
331929
331929
331929
331929
331636
331636
331636
331636
331636
331636
331636
331636
331636
331636
331636
331636
331636
331636
331636
331636
331636
331636
331636
331342
327473
327473
327473
327473
327473
327473
327473
327473
327473
327473
327473
327473
326950
326950
326950
326950
326950
326950
326950
326950
326950
326950
326950
326950
326950
326950
326950
326950
326950
326950
326950
326950
326678
326678
326678
326678
326678
326678
326678
326678
326678
326678
326678
326678
326636
326636
326636
326636
326636
326636
326636
326006
326006
326006
326006
326006
326006
326006
326006
326006
326006
326006
326006
325667
325667
325667
325667
325667
325667
325667
325667
325667
325667
325667
325667
325667
325667
325667
325667
325667
325667
324291
324291
324291
324291
324291
324291
324291
324291
324291
323598
323598
323598
323598
323598
323598
323598
323598
323598
323598
323598
323598
323598
323598
323598
323598
323598
323598
323394
323394
323394
323394
323394
323394
323394
323394
323394
323394
323143
323143
323143
323143
323143
323143
323143
323143
323143
323143
323143
323143
323143
323143
323143
322124
322124
322124
322124
322124
322124
322124
322124
320895
320895
320895
320895
320895
319869
319869
319869
319869
319735
319735
319735
319735
319735
319735
319735
319735
319735
319735
319735
319735
319735
319735
319735
319735
319735
319735
319672
319672
319647
319647
319647
319647
319647
319647
319647
319647
319647
319647
319647
319647
319647
319647
319647
319647
319647
319647
319647
318458
318458
318458
318458
318458
318458
318458
318458
318458
318458
318458
318458
318458
318209
318209
318209
318209
318209
318209
318209
318209
317340
317340
317340
317340
317340
317340
317340
315463
315463
315463
315463
315463
315463
314749
314749
314749
314749
314749
314749
314749
314749
314169
314169
314169
314169
314169
314169
314169
314169
314169
314169
314169
314169
314169
314169
314169
314169
314169
314169
314169
314165
314165
314165
314165
314165
314165
314165
314165
314165
314165
314165
314165
314165
314165
314165
314165
314165
314165
314116
314116
314116
314116
314116
314116
314116
314116
314116
314116
314116
314116
314116
314116
313971
313971
313971
313971
313971
313971
313971
313971
313971
313971
313971
313971
313971
313971
313971
313971
313527
313527
313527
313527
313527
313038
313038
313038
313038
313038
313038
313038
313038
313038
313038
313038
313038
313038
313038
312848
312848
312848
312848
312848
312848
312848
312848
312848
312848
312848
312848
312848
312848
312848
312655
312655
312655
312655
312655
312655
312655
312655
312655
312655
312655
312655
312655
312587
312587
312587
312587
312587
312100
312100
312100
312100
312100
312100
312100
312100
312100
312100
312100
311783
311783
311783
311783
311783
311783
311783
311783
310949
310949
310949
310949
310861
310861
310861
310801
310801
310215
310215
310215
310196
310196
310196
310196
310196
310196
310196
310196
310196
310196
310196
310196
310196
310032
309693
309693
309693
309693
309693
309693
309693
309693
309693
309693
309693
309693
309693
309693
309693
309693
309693
309258
309258
309258
309258
309258
309258
309258
309258
309258
309258
309258
309258
309258
308089
308089
308089
308089
308081
308081
308081
308081
308081
308081
308081
308081
308081
308081
308081
308081
308081
308081
308081
308081
308081
307494
307494
307494
307494
307494
307494
306938
306938
306938
306938
306424
306424
306424
306424
306424
306424
305550
305550
305550
305550
305550
305550
305550
305550
305550
304813
304813
304813
304813
303417
303417
303417
302646
302646
302646
302646
302646
302646
302646
302646
302646
302646
302646
302646
302646
302646
302203
302203
302203
302203
302203
302203
302203
302203
302203
302203
302203
302203
302203
302203
302203
302203
302203
302203
302203
301943
301943
301943
301943
301943
301943
301943
301943
301943
301943
301943
301943
301943
300298
300298
300298
300190
300190
300190
300190
300190
300190
300190
300190
300190
300190
300190
300190
300190
300190
300190
300190
300190
300190
299003
299003
299003
299003
299003
299003
299003
298915
298915
298915
298588
298588
298588
298519
298519
298519
298519
298519
298433
298433
298433
298433
298433
298433
298433
298433
298433
298433
298433
298433
298433
298433
298433
297993
297582
297582
297582
297582
297582
297582
297582
297582
297475
297475
297475
297475
297475
297475
297475
297475
297475
297475
297475
297475
297475
297475
297475
297475
297475
297475
297475
297475
297354
297354
297354
297354
297354
297354
297354
297354
297354
297354
297354
297354
297354
297354
297241
297241
297241
297241
297241
297078
297078
297078
297078
297078
297078
297078
297078
297078
297078
297078
297078
297078
297078
297078
297078
295375
295375
295375
295375
295375
295375
295375
295375
295375
294823
294823
294823
294823
294823
294823
294823
294823
294823
294823
294823
294823
294823
294823
294819
294819
294819
294819
294819
294819
294819
294819
294819
294819
294819
294819
294819
294819
294819
294819
294691
294691
294691
294691
294691
294553
294088
294088
294088
294088
294088
294088
294088
294088
294088
294088
294088
293113
293113
292794
292794
292541
292541
292541
292541
292541
292541
291544
291544
291544
291544
287691
287691
287691
287691
287691
287691
286225
285928
285928
285928
285928
285928
285928
285675
285675
285675
285675
285675
285675
285675
285675
285675
285675
285675
285675
285675
285629
285629
285629
285629
285629
285629
285629
285629
285629
285629
285629
285629
285629
285629
285629
285361
285361
285361
285361
285361
285361
285361
285361
285361
285361
285361
285361
285361
285361
285361
285361
284951
284951
284951
284951
284951
284951
284951
284951
284061
284061
284061
284061
284061
284061
284061
284061
284061
284061
284061
284010
284010
284010
284010
284010
284010
284010
284010
284010
284010
284010
284010
283834
283834
283834
283834
283834
283834
283834
283834
283834
283834
283834
283834
283752
283752
283752
283752
281854
281854
281854
281854
281854
281854
281854
281854
281854
281315
281315
281315
281315
281315
281315
281315
281315
281315
281315
281315
281315
281315
281315
281315
281315
279718
279718
279718
279718
279718
279718
279718
279718
279718
279718
279718
279718
279718
279718
279718
279718
279718
279718
279681
279681
279681
279681
279681
279681
279681
279681
279681
279660
279660
279660
279660
279660
279660
279660
279660
279660
279660
279660
279660
279660
279660
279660
279660
279660
279276
279276
279276
279276
279276
279276
279276
279276
279276
279276
279276
279276
279276
278744
278744
278744
278744
278744
278744
278744
278744
278744
278744
278744
278744
278744
278744
278744
278744
278744
278744
278591
278591
278591
278591
278591
278591
278591
278591
278591
278591
278591
278591
278591
278591
278591
278591
278591
278591
278591
277568
277568
277568
277568
277568
277568
277568
277568
277568
277568
277568
277568
277568
277230
277230
277230
277230
277230
277230
274340
274340
274340
274340
274340
274340
274340
274340
274340
274340
274340
274340
274340
274340
274340
274340
273525
273525
273525
273525
273525
273525
273525
273525
273525
273525
273525
273525
272936
272936
272936
272936
272936
272446
272446
272446
272446
272446
272446
272446
272446
272446
272446
272446
272446
272446
272446
272446
272446
272446
272446
272446
271430
271430
271430
271430
271430
271430
271430
271430
271430
271430
271430
269761
269761
269761
269761
269761
269255
269255
269255
269255
269255
269255
266466
266466
266466
266466
266466
266466
266466
266466
266466
266466
266466
266466
266466
266466
266466
266466
266466
266466
266466
266466
266227
266227
266227
266227
266227
266227
266227
266227
266227
266227
266227
266227
266227
266227
266227
266013
266013
266013
266013
266013
266013
266013
266013
266013
266013
266013
263442
263442
263442
263442
263442
263442
263442
263442
263442
263442
263442
263442
263442
263442
263442
263442
263442
263442
263080
263080
263080
263080
263080
263080
263080
263080
263080
263080
263080
263080
263080
263080
263080
263080
263080
263080
263080
263080
262584
262584
262584
262584
262087
262087
262075
262075
262075
262075
262075
262075
262075
262075
262075
262075
262075
262075
262075
262075
262075
262075
262075
262075
259743
259743
259743
259743
259743
259743
259743
259743
259743
259743
259743
259743
259743
259743
259743
259743
259743
259743
259743
258996
258996
258996
258996
258860
258860
258860
258860
258860
258860
258860
257839
257839
257839
257839
257839
257839
257839
257839
257839
257839
257839
257839
257839
257839
257681
257681
257681
257681
257681
257681
257681
257681
257681
257681
257681
256491
256491
256491
256491
256491
256491
256491
256491
256491
256491
256491
256491
256491
256491
256491
256491
256491
255639
255639
255639
255639
255639
255639
255639
255639
255639
255639
255639
255639
255639
255257
255257
255257
255257
255257
255257
255257
255257
255257
255257
255257
255257
255257
254689
254689
254689
254689
254689
254689
254689
254689
254689
253985
253985
253985
253985
253985
253985
253985
253605
253605
253605
252573
252573
252573
252573
252573
252573
252573
252573
252573
252573
252573
252573
251559
251559
250741
250603
250603
250603
250603
250603
250603
250603
249807
249807
249807
249807
249807
249807
249807
249807
249807
249807
249807
249807
249807
249767
249375
249375
249375
249375
249375
249375
246847
246847
246847
246405
246405
246405
246405
246405
246405
246405
246405
246405
246405
246405
246405
246405
246405
246405
246405
246405
246405
244812
244812
244812
243566
243566
243566
243566
243566
243566
243566
243566
243523
243523
243523
243289
243289
243289
243289
243289
243289
243289
242698
242698
242698
242698
242698
242698
242698
242698
242698
242698
242698
242698
242698
242449
242449
242449
242449
242449
242449
242449
242449
242449
242449
242449
242449
242449
242449
242449
242449
242449
242449
242449
242384
242384
242384
242384
242384
242384
242384
242384
242384
242384
242384
242384
242384
242384
242384
242384
242384
242384
242384
242384
241918
241918
241918
241918
241918
241918
241918
241918
241918
241918
241918
241918
241918
241918
241918
241918
241918
241918
241918
241918
241716
241716
241716
241116
241116
241116
241116
241116
241116
241116
241116
241116
241116
241116
241116
241116
241116
239840
239840
239840
239840
239840
239840
239840
239840
239840
239840
239840
239840
239840
239727
239727
239727
239727
239727
239727
239727
239727
239727
239727
239727
239727
239727
239727
239727
239727
239727
239080
238804
238804
238804
238804
238804
238804
238804
238804
238804
238804
238804
238804
238804
238804
238804
238804
238804
238804
238804
238804
238651
238651
238651
238651
238651
238651
238651
238651
238651
238651
238651
238651
238651
238651
238651
238651
238651
238651
238651
238322
238322
238322
238322
238322
238322
238322
238322
236066
236066
236066
236066
236066
236066
235906
235906
235906
235906
235906
235906
235906
235906
235400
235400
235056
235056
235056
233836
233836
233836
233836
233836
233836
233836
233836
233836
233836
233836
233836
233836
233631
233631
233631
233631
233631
233631
233631
233631
233566
233566
233566
233566
233566
233566
233566
233566
233566
233566
233566
233566
233566
233239
233239
233239
233239
233239
233239
233239
233239
233239
231924
231924
231924
231924
231924
231924
231924
231924
231924
231924
231924
231921
231921
230909
230909
230909
230909
230909
230909
230909
230909
230682
230682
230682
230682
230682
230682
230682
230682
230682
230682
230682
229369
228633
228633
228633
228633
228633
228633
228633
227802
227802
227802
227802
227802
227802
227445
227445
227445
227445
227445
227445
227445
227445
227445
227445
227445
227445
227302
227302
227302
227302
227302
227302
227302
227302
227302
227302
227302
226977
226977
226977
226977
226977
226977
226977
226977
226977
226977
226977
226977
226977
226977
226977
226977
226693
226693
226693
226693
226693
226693
226693
226693
226693
226693
226693
226693
226693
226693
226693
226693
226693
225912
225912
225912
225912
225912
225912
225912
225912
224845
224845
224845
224845
224845
224845
224845
224845
224845
224845
224845
224845
224845
224845
224845
224845
224845
224845
224845
224825
224551
224551
222817
222817
222817
222817
222817
222817
222817
220593
220593
220593
220593
220593
220593
220593
220593
220593
220593
220593
220593
220593
220476
220476
220476
220476
220476
220476
220476
220476
220476
220476
220476
220476
218503
218503
218503
218503
218503
218503
218503
218503
218503
218503
218503
218503
218503
218503
218503
218503
218503
218503
218274
218274
218274
218274
218274
218274
218274
218274
218274
218274
218274
218274
218274
218274
218274
218274
217641
217641
217641
217641
217641
217641
217641
217641
217641
217641
217641
217641
217641
217455
217455
217064
217064
217064
217064
217064
217029
217029
217029
217029
217029
217029
217029
217029
217029
217029
217029
217029
217029
217029
217029
216943
216943
216943
216943
216943
216943
216493
216493
216493
216493
216493
216493
216493
216493
216493
216493
216493
216493
216493
216493
216493
216493
216177
216177
216177
216177
216177
216177
216177
216177
216177
216177
216177
216177
216177
216110
216110
216110
216110
216110
216110
216110
216110
216110
216110
216110
216110
216110
216110
216110
215634
215634
215634
215634
215634
215634
215634
215458
215458
213250
213250
213086
213086
213086
213086
213086
213086
213086
213086
213086
213086
213086
213086
213086
213086
213086
213086
213086
213086
213086
213044
213044
213044
213044
213044
213044
213044
213044
213044
212514
212514
212514
212514
212514
212514
212514
212514
212514
212514
212514
212514
212514
212514
212514
212514
212514
212301
212301
212301
212301
212301
212301
212301
212301
212301
212301
212301
212301
212301
212301
212301
212301
212301
212301
212050
212050
212050
212050
212050
212050
212050
212050
211571
211571
211571
211571
211571
211571
211571
211571
211571
211571
211571
211571
211571
211571
211571
211571
211571
210978
210978
210978
210978
210978
210978
210978
210978
210978
210978
210978
210978
210978
210978
210978
209758
209758
209758
209758
209584
209584
209434
209434
209434
209434
209434
209434
209434
209434
209434
209434
209434
209434
209434
209434
209434
209434
209434
209434
208020
208020
208020
208020
208020
208020
208020
208020
208020
208020
208020
208020
208020
208020
208020
208020
208020
208001
208001
208001
208001
208001
208001
208001
208001
208001
208001
208001
208001
208001
208001
208001
208001
208001
208001
207325
207325
205477
205477
205477
205477
205477
205477
205477
205477
205477
205477
205477
205477
205477
205477
205477
205477
205477
205477
204426
204426
204426
204426
204426
204426
204426
204426
204426
204426
204426
204426
204426
204426
204426
204426
204426
204426
204426
204020
204020
204020
204020
204020
204020
204020
204020
204020
203877
203877
203877
203877
203877
203877
203877
203877
203877
203877
203877
203877
203877
203877
203877
203877
203877
203877
203877
203877
203376
203376
202791
202791
202791
202791
202791
202791
202791
202791
202791
202791
202791
202791
202791
202791
202791
202791
201715
201715
201715
201715
201715
201715
201715
201715
201715
201715
201715
201715
201715
201715
201715
201715
201715
201166
201166
201166
201166
200146
200146
200146
200146
200146
200146
200146
200146
200146
200146
199903
199903
199903
199903
199903
199903
199903
199903
199903
199903
199903
199903
199350
199350
197250
197250
197250
197250
197250
197250
197250
197250
197250
197250
197250
197250
197250
197250
197250
197250
197250
197250
197250
197250
195693
195693
195693
195693
195693
195693
195693
195693
195693
195693
195693
195693
195693
195693
195693
195693
195693
195693
195274
195274
195274
195274
195274
195274
195274
195274
195274
195274
195274
195274
195274
195274
195274
195274
194005
194005
194005
194005
194005
194005
194005
194005
194005
194005
194005
194005
194005
194005
194005
194005
194005
194005
193899
193899
193899
193899
193899
193899
193899
193899
193899
193434
193434
193434
193434
189401
189401
189401
189401
189401
189401
189401
189401
189401
189401
189401
189401
189401
189401
189401
189401
189401
189401
189165
189165
189165
189165
189165
189165
189165
189165
189165
189165
189165
189165
189165
189165
189165
189165
189165
187099
187099
187099
187099
187099
186849
186849
186849
186849
186849
186849
186849
186849
186849
186849
186849
186849
186849
186849
186849
186849
186849
186849
186324
186324
186324
186324
186324
186324
186324
186324
186324
186324
185477
185477
185477
185477
185477
185477
185477
185477
185477
185477
185477
185477
185477
185477
185477
185477
185477
184587
184587
184587
184587
184587
184587
184587
184587
184587
184587
184587
184587
184587
184587
183498
183498
183259
183259
183259
183259
183259
183259
183259
183259
183259
183259
183259
183259
183259
183259
183259
183168
183168
183168
183150
183150
183150
183150
183150
183150
183150
183150
183150
183150
183150
183150
183150
183150
183150
183150
183150
183150
183150
182806
182806
182806
182806
182806
182806
182806
182806
182806
182806
182806
181300
181300
181300
181300
181300
181300
181188
181188
181188
181188
181188
181188
181188
181188
181188
181188
181188
181188
181188
181188
181188
181188
181188
181188
181188
181188
178939
178939
178939
178939
178939
178939
178939
178939
178939
178939
178939
178939
178939
178939
178939
178939
178939
178939
178939
178939
178752
178752
178752
178752
178752
178752
178752
178752
178752
178752
178752
178752
178752
178752
178752
178752
177593
177593
177593
177593
177593
177593
177593
176071
176071
176071
176071
176071
176071
176071
176071
176071
176071
176071
176071
176071
176071
176071
176071
176071
176071
175996
175996
175996
175996
175996
175996
175996
175996
175996
175996
175996
175518
175278
175278
175278
175278
175278
175278
175278
175278
175278
175278
175278
175278
174973
174973
174973
174973
174973
174973
174973
174973
174973
174973
174973
174973
174973
174973
174963
174963
174963
174963
174963
174963
174963
174963
174963
174963
174963
174963
174963
174963
173099
173099
173099
173099
173099
173099
173099
173099
173099
173099
173099
173099
173099
173099
173099
173099
173099
173099
173099
173099
172776
172776
172776
172776
172776
172776
172776
172776
172776
172776
172776
172776
172776
172713
172713
172713
172713
172713
172713
172713
172713
172713
172713
172713
171263
171263
171263
171263
171263
171263
171263
171252
171252
171252
171252
171252
169767
169767
169767
169767
169767
169767
169767
169767
169767
169767
169344
169344
169344
169344
169344
169344
169344
169344
169344
169344
169344
169344
169344
169344
169344
169344
169344
169344
169344
168844
168844
168844
168844
168844
168844
168844
168844
168844
168844
168619
168619
168619
168619
168619
168619
168619
168619
168619
167720
167720
166472
166472
166472
166472
166472
166472
166472
166472
166472
166472
166472
166472
166472
166472
166472
164651
164651
164651
164651
164651
161182
161182
161182
161182
161182
161182
161182
161182
161182
161182
161182
161182
161182
161182
161182
161182
161182
161182
161182
159724
159724
159724
159724
159724
159724
159724
159724
159724
159724
159724
159434
159434
159434
159434
159434
159434
159434
159434
159434
159434
159434
159434
159434
159434
159434
159434
159101
158023
158023
158023
158023
158023
158023
158023
158023
158023
158023
158023
158023
158023
158023
158023
158023
158023
158023
158023
158023
157337
157337
157337
157337
157337
157337
157337
157337
157337
157337
157337
157337
157337
157337
157337
157337
157337
157337
157188
157188
156932
156932
156932
156932
156932
156932
156297
156297
156297
156297
156297
156297
156297
156297
156297
156297
156297
156297
156297
156297
156297
156297
156297
156297
155969
155969
155969
155969
155969
155969
155969
155969
155969
155969
155969
155969
155969
155969
155969
155343
155343
155343
155343
155343
155343
155343
155343
155343
155253
155253
153394
153394
153394
153394
153394
153394
153394
153394
153394
153394
153394
152482
152482
152482
152482
152120
152120
152120
152120
152059
152059
152059
152059
152059
152059
152059
152059
152031
152031
152031
152031
152031
152031
152031
152031
152031
152031
152031
151717
151717
150855
150855
150854
150854
150854
149519
149519
149519
149519
149519
149519
149519
149519
149519
149519
149519
149519
149519
149519
148831
148831
148831
148831
148831
148831
148831
148831
148831
148831
148831
146217
146217
146217
146217
146217
146217
146217
146217
146217
146217
146217
146217
146217
146217
146217
145781
145781
145781
145781
145781
145781
145781
145781
145781
145781
145781
145781
145781
145781
145781
145781
145781
145781
145781
145781
145574
145574
145574
145574
145574
145574
145574
145574
145385
144590
144590
144590
144590
144590
144590
144590
144590
144590
144590
144590
143591
143591
143591
143591
143591
143591
143591
143591
143591
143591
143591
143591
143591
143591
143013
143013
143013
143013
143013
142892
142892
142892
142892
142892
142892
142892
142892
142892
142892
142892
142892
142892
142892
142892
142892
142892
142892
142509
142509
142509
142509
142509
142109
142109
142109
142109
142109
142109
142109
142109
142109
142109
142109
140991
140991
140991
140991
140991
140991
140054
140054
138618
138618
138618
138602
138602
138602
138602
138602
138602
138602
138602
138602
138602
137996
137996
137996
137996
137996
137996
137996
137932
137932
137297
137297
137297
137133
137133
137133
137133
137133
137133
137133
137133
137133
137133
137133
137133
137133
137133
137133
136815
136815
136815
136815
136815
136815
136815
136815
136815
136815
136815
136815
136815
136815
136815
136517
135819
135819
135819
135819
135819
135819
135819
135819
135819
135819
135819
135819
135819
135819
135819
135802
135802
135766
135766
135766
135766
135766
135766
135766
135766
135693
135693
135693
135693
135693
135693
135693
135693
135693
135693
135693
134749
134749
134749
134675
134675
134675
134675
134675
134675
134675
134675
134675
134675
134675
134675
134675
134675
134675
134675
134675
134675
132813
132813
132813
132813
132813
132813
132813
132813
132813
132813
132813
132813
132813
132813
132813
132813
132813
132813
132813
131813
131813
131813
131813
131813
131813
131813
131813
131813
131813
131813
131813
131813
131813
131813
131813
131813
131813
131813
131813
131230
130877
130877
130859
130859
130859
130859
130859
130859
130859
130859
130026
130026
130026
130026
130026
130026
129979
129979
129979
129979
129979
129979
129979
129979
129979
129979
129979
129979
129979
129979
129979
129979
129979
129979
129979
129979
127618
127618
127618
127618
127618
125922
125922
125922
125922
125922
125752
125752
125752
125752
125752
125752
125752
125752
125752
125752
125752
125752
125752
125752
125752
125752
125331
125331
125331
125331
125331
125331
125331
125331
125331
125331
125331
125331
125331
125331
125331
125331
125331
125331
125331
122857
122857
122857
122857
122857
122857
122857
122857
122857
122857
122857
122857
122857
122857
122857
122857
122857
122857
122857
122528
122528
122528
122528
122528
122528
122528
122528
122528
122528
122528
122528
122528
122528
122528
122528
122528
122528
122315
122315
122315
122315
122315
122315
122315
122315
122315
122315
122315
122315
122315
122315
122315
122315
122315
122315
122315
122315
121591
121591
121591
121591
121591
121591
121591
121591
121591
121591
121591
121591
121591
121591
121591
121591
121591
121591
121591
121148
121148
121148
121148
121148
121148
121148
119486
119486
119486
119067
119067
119067
119067
119067
119067
119067
119067
119067
119067
119067
119067
119067
119067
119067
119067
119067
119067
119023
119023
119023
119023
119023
119023
119023
119023
119023
119023
119023
119023
119023
119023
118831
118831
118831
118831
118831
118831
118831
118831
118831
118831
118831
118831
118831
118011
116875
116875
116875
116875
116875
116875
116875
116875
116875
115608
115608
115608
115608
115608
115608
115608
115608
115608
115608
115608
115608
115608
115608
115608
115608
114649
114649
114649
114649
114649
114649
114649
114649
114649
114649
114649
114649
114426
114426
114426
114426
114426
114426
114426
114426
114426
114426
114426
114426
114426
114426
114426
114426
114426
114426
114426
114426
114362
114362
114362
114362
114362
114362
114362
114362
114362
114362
114362
114362
114362
114362
114362
113187
113187
113187
113187
113187
113187
113187
113187
113187
113187
113187
113187
113187
113187
113187
113187
113187
113145
113145
113145
113145
113145
113145
113145
113145
113145
113145
113145
113145
113145
111670
111670
111505
111505
111505
111505
111505
111505
111505
111505
111505
111505
111505
111505
111050
111050
111050
111050
111050
111050
111050
111050
111050
111050
111050
110898
110898
110898
110898
110898
110898
110898
110898
110898
110898
110898
110898
110898
110898
110898
110898
110898
110557
110557
110557
110557
110557
110557
110557
110557
110557
110557
110557
110557
110557
110557
110193
110193
110193
109866
109866
109866
109866
109866
109866
109866
109866
109866
109570
109570
109570
109570
106746
106746
106746
106746
106746
106746
106746
106746
106746
106746
106746
106746
106746
106746
106746
106746
106675
106675
106675
106675
106675
106675
106675
106675
106675
106675
106675
106675
106675
106675
106675
106675
106675
106675
106675
106105
106105
106105
105958
105958
105958
105958
105958
105958
105958
105958
105958
105958
105958
105379
105379
105379
105379
105379
105379
105379
105379
105379
105379
105379
105379
105379
105379
105379
105379
105379
105379
105379
103226
103226
103226
103226
103226
103226
103226
103226
103226
103226
103226
103226
103226
103226
102861
102272
102272
102272
101253
101253
101253
101253
101253
101253
101253
101253
100027
100027
100027
100027
100027
100027
100027
100027
100027
100027
100027
100027
100027
100027
100027
99587
99587
99587
99587
99587
99587
99587
99587
99587
99587
98985
97749
97749
97749
97749
97749
97749
97749
97481
97481
97481
97481
96782
96782
96782
96782
96782
96782
96767
96767
96767
96767
96767
96767
96767
96767
96767
96767
96767
96767
96767
96767
96338
96338
96338
96338
96338
96338
96338
96338
96338
96338
96338
96338
96338
96338
96338
96338
96338
96338
95857
95857
95857
95857
95857
95857
95857
95857
95857
95857
95857
95857
95857
95857
95857
95857
95857
95857
95857
95857
94740
94740
94740
94740
94740
94740
92583
92583
92583
92583
92583
92583
92583
92583
92583
92583
92583
92583
92583
92583
92583
92583
92583
92583
92583
92559
92559
92386
92386
92386
92386
92386
92386
92386
92386
92386
92386
92386
92386
92386
92386
92386
92236
91708
91708
91708
91020
91020
91020
91020
91020
91020
91020
91020
91020
91020
91020
91020
91020
91020
91020
91020
91020
90536
90536
90536
90536
90536
90536
90536
90536
90536
90536
90235
90235
90235
90235
90235
90235
90235
90066
90066
90066
90066
90066
90066
90066
90066
90066
90066
90066
90066
90066
90066
90066
90066
90066
90066
90066
90066
90026
90026
90026
90026
90026
90026
90026
90026
90026
90026
90026
90026
90026
90026
90026
90026
90026
90026
90026
89682
89682
89682
89682
89682
89682
89682
89682
89682
89682
89682
89682
89682
89682
89682
89082
89082
89082
89082
89082
89082
89082
89082
89082
89082
89082
89082
88496
88496
88496
88496
88496
88496
88496
88496
88496
88496
88496
88496
88496
88496
88496
88496
88496
88496
88496
88496
87581
87581
87581
87581
86264
86264
86264
86264
86264
86264
86264
86264
86264
86264
86264
86264
86264
86264
86017
86017
86017
86017
86017
86017
86017
86017
86017
86017
86017
86017
86017
84896
84896
84896
84896
84896
84896
84896
84896
84896
84656
84656
84656
84656
83053
83053
83053
83053
83053
83053
83053
83053
83053
83053
83053
83053
83053
83053
83053
83053
83053
81891
81891
81891
81891
81891
81759
81759
81759
81759
81759
81759
81759
81759
81759
81759
81759
81759
81759
81759
81759
80719
80719
80719
80719
80719
80719
80719
80719
80719
80719
80719
80719
80719
80429
80429
80429
80429
80429
80429
80429
80429
80429
80429
80429
80429
80429
79366
79366
79366
79366
79366
79366
79366
79366
79325
79325
79325
79325
79325
78970
78970
78970
78970
78712
78712
78712
78712
78712
78712
78712
78712
78712
78712
78712
78257
78257
78257
77767
77767
77767
77767
77767
77767
77767
77767
77767
77767
77767
77767
77767
77767
77767
77767
77767
77767
77767
77767
77474
77474
77474
77474
77474
77474
77474
77474
77474
77474
77474
77474
77474
77474
77474
77474
77474
77474
77474
77474
77094
77094
77094
77094
77094
77094
77094
77094
77094
77094
77094
77094
77094
77094
77094
77094
77094
77094
75392
75392
75392
75392
75392
75392
75392
75392
75392
75392
75392
75128
75128
75128
75128
75128
75128
75128
75128
75128
75128
75128
75128
75128
75128
75128
75128
74622
74622
74622
74622
74622
74622
74622
74622
74622
74622
74622
74622
74622
74622
74622
74253
74253
74253
74253
74253
74253
74253
74253
74253
74253
74253
74253
74253
74253
74253
74253
74253
74253
74253
74253
73899
73899
73899
73899
73899
73899
73899
73899
71840
71840
71840
71840
70920
70920
70920
70920
70920
70920
70920
70920
70920
70404
69107
69107
69107
69107
69107
69107
69107
69107
69107
69107
69107
69107
69107
69107
69107
69107
69006
69006
69006
69006
69006
69006
67899
67899
67899
67899
67899
67899
67899
67899
67899
67899
67899
67899
67899
67899
67899
67899
67899
67899
67899
67899
67700
67700
67700
67700
67700
67700
67700
67700
67700
67700
67700
67700
67700
67700
67700
67700
67700
67700
67700
67413
67413
67413
67413
67413
67249
67249
67249
67249
67249
67249
67249
67249
67249
66410
66410
66410
66410
66410
66410
66410
65883
65883
65883
65883
65883
65883
65883
65413
65413
65413
65413
65413
65413
65413
65413
65413
65413
65413
65413
65413
64595
64595
64217
64217
64217
64217
64217
64217
64217
64217
64217
64217
64217
64217
64217
64217
64217
64217
64217
64217
64203
64203
64203
64203
64203
64203
64203
64203
64203
64203
64203
64203
64203
64203
64203
64203
63113
63113
63113
63113
63113
63086
63086
63086
63086
63086
62899
62899
62899
62899
62899
62899
62899
62869
62869
61706
61706
61706
61706
61706
61706
61706
61706
61706
61672
61672
61672
61672
61672
61672
61672
61672
61672
61672
61672
61672
61672
61672
61210
61210
61053
61053
61053
61053
61053
61053
61053
61053
61053
59821
59821
57976
57976
57976
57976
57976
57301
57301
57301
57301
57130
57130
57130
57130
57130
57130
57130
57130
57130
57130
57130
57130
57130
57130
57130
56713
56713
56713
56713
56713
56713
56713
56713
56713
56095
56095
56095
56095
56095
56095
56095
56095
56095
56095
56095
56095
56095
56095
56095
56095
54546
54546
54546
54546
54546
54546
54546
54546
54546
54546
54546
54546
54546
54546
54546
54546
54546
53780
53780
53780
51743
51743
51743
51743
51743
51743
51743
51743
51743
51743
51743
51743
51743
51743
51743
51743
51743
51662
51662
51662
51662
51662
51662
51662
51662
51662
51662
51662
51662
51662
51662
51662
51662
51662
51465
51465
51465
51465
51465
51465
51465
51465
51465
50908
50908
50908
50908
50908
50908
50908
50908
50908
50908
50908
50908
50908
50908
50908
50908
50908
50139
50139
50139
50139
50139
50139
50139
50139
50139
50139
50139
50139
50139
49393
49393
49393
49393
49393
49393
49393
49393
49393
49393
49393
49393
49393
48932
48932
48932
48932
48932
48932
48932
48932
48932
48932
48932
48932
48825
48470
48470
48470
48470
48470
48470
48470
48470
48470
48470
48470
48356
48356
48356
48356
48356
48356
48356
48356
48356
48356
48356
48356
48150
48150
48150
48150
48150
48150
48150
48150
48150
48150
48150
48150
48150
48150
47855
47855
47855
47855
47855
47855
47855
47855
47855
47855
47855
47855
47855
47855
47176
47176
47176
47176
47176
47176
46697
46697
46697
46697
46697
46697
46697
46697
46697
46697
46697
46697
46697
46697
46697
46697
46697
46697
46697
46697
46011
46011
46011
46011
46011
46011
46011
46011
46011
46011
46011
46011
46011
46011
46011
46011
46011
46011
46011
46011
44679
44679
44679
44679
43770
43770
43770
42690
42690
42690
42690
42690
42690
42690
42690
42690
42690
42690
42690
42690
42690
42690
42690
42690
42390
42390
42390
42390
42390
42390
42390
42390
42390
42390
42390
42390
42390
42390
42390
42390
42390
42390
41047
41047
41047
41047
41047
41047
41047
41047
41047
41047
41047
41047
41047
40973
40973
40973
40973
40973
40973
40973
40973
40973
40973
40973
40973
40973
40973
40973
40571
40571
40571
40571
40571
40571
40571
40571
40571
40571
40571
40253
40253
40253
37393
37393
37393
37393
37393
37393
37393
37393
37393
37393
37393
37393
37380
37380
37380
37380
37380
36982
36982
36982
36982
36982
36982
36982
36982
36982
36982
36982
36982
36982
36982
36982
36982
36982
36982
36982
36604
36604
36604
36604
36604
36604
36604
36604
36604
36604
36604
36604
36604
36604
36604
35462
35462
35462
35462
35462
35462
35462
35462
32719
32719
32719
32719
32719
32719
32719
32719
32719
32719
32719
32719
32719
32719
32719
32719
32719
32719
32719
31691
31578
31578
31578
31578
31578
31126
31126
31126
31126
31126
31126
31126
31126
31126
31126
31126
31126
31126
31126
29407
29407
28922
28922
28922
28922
28922
28922
28922
28922
28922
28922
28922
28922
28607
28607
28607
28607
28607
28288
28288
28288
28288
28288
28288
28288
28288
28288
28288
28288
28288
28288
28288
25488
25488
25488
25488
25488
25488
23607
23607
23607
23607
23607
23607
23607
23607
23607
23607
23607
23607
23607
23607
23014
23014
23014
23014
23014
23014
22905
22905
22905
22773
22773
22773
22773
22773
22773
22773
22773
22773
22773
22773
22773
22773
22773
22773
22773
22773
22773
22290
22290
22290
22290
22290
22290
22290
22290
22220
22220
22220
22220
22220
22220
22220
21696
21696
21696
21696
21696
21696
21696
21696
21696
21696
21696
21696
21696
21696
21696
21652
21652
21652
21652
21652
21652
21652
21652
21652
21652
21652
21652
21652
21652
21177
21177
21177
21177
21177
21177
21177
21177
21177
21177
20645
20645
20645
20645
20645
20645
20645
20645
20645
20645
20645
20645
20645
20645
20645
20645
20221
20221
20221
20221
20221
20221
20221
20221
20221
20221
20221
20221
20221
20221
19568
19568
19568
19568
19568
19568
19568
19568
19568
19568
19568
19568
19568
19379
19379
19379
19379
19379
19379
19379
19379
18968
18968
18968
18968
18968
18968
18968
18968
18968
18968
18968
18968
18968
18968
18958
18958
18958
18958
18958
16305
16305
16305
16305
16305
16305
16305
16188
16188
16188
16188
16188
16188
16188
16188
16188
16188
16188
16188
16188
16188
16188
16188
16188
16188
16188
16041
16041
16041
16041
16030
16030
16030
16030
16030
15876
15876
15876
15876
15876
15876
15876
15876
15876
12913
12913
12913
12913
12913
12913
12913
11265
11265
11265
11265
11265
11265
11265
11265
11265
11265
11265
11265
11265
11265
11265
10498
10498
10099
10099
10099
10099
10099
10099
9715
9715
9715
9715
9715
9715
9715
9715
9715
9715
9715
9715
9715
9715
9715
9715
9715
9715
9715
8516
8516
8516
8516
8516
8516
8516
8516
7893
7893
7893
7893
7893
7893
7893
7893
7893
7893
7597
7597
7597
7597
7597
7597
7597
7597
7597
7597
7597
7597
7597
7597
7597
7597
7597
7597
7587
7587
7587
7587
7587
7587
7587
7587
7587
6892
6892
6892
6892
6892
6892
6892
6198
6198
6198
6198
6198
6198
6198
5796
5796
5796
5796
5796
5796
5796
5796
5796
5796
5788
5788
5788
5788
5788
5788
5788
5788
5788
5788
5788
5788
5788
5788
5788
5788
5406
5406
5406
5406
5406
5406
5406
5406
5113
5113
5113
5113
5113
5113
5113
5113
5062
4615
4615
4615
4615
4615
4615
4615
4615
4615
4615
